n_res = 4;
rc = [ 15, 20, 19, 16 ];
n_tasks = 30;
d = [ 5, 1, 6, 8, 5, 1, 4, 10, 7, 3, 1, 10, 4, 4, 4, 5, 7, 3, 7, 3, 2, 4, 1, 1, 5, 9, 4, 6, 10, 2 ];
rr = [| 15, 15, 15, 15, 15, 15, 15, 15, 15, 15, 15, 15, 15, 15, 15, 15, 15, 15, 15, 15, 15, 15, 15, 15, 15, 15, 15, 15, 15, 15
      | 20, 20, 20, 20, 20, 20, 20, 20, 20, 20, 20, 20, 20, 20, 20, 20, 20, 20, 20, 20, 20, 20, 20, 20, 20, 20, 20, 20, 20, 20
      | 19, 19, 19, 19, 19, 19, 19, 19, 19, 19, 19, 19, 19, 19, 19, 19, 19, 19, 19, 19, 19, 19, 19, 19, 19, 19, 19, 19, 19, 19
      | 16, 16, 16, 16, 16, 16, 16, 16, 16, 16, 16, 16, 16, 16, 16, 16, 16, 16, 16, 16, 16, 16, 16, 16, 16, 16, 16, 16, 16, 16|];
suc = [ { 4, 6, 12 },
       { 10 },
       { 5, 7, 13 },
       { 10, 15 },
       { 10, 17 },
       { 8, 15, 18 },
       { 9, 11, 30 },
       { 19 },
       { 17, 18, 21 },
       { 24 },
       { 14 },
       { 20, 25, 26 },
       { 19, 20, 26 },
       { 19 },
       { 16, 22, 24 },
       { 23 },
       { 22, 25, 29 },
       { 23 },
       { 24, 25 },
       { 21, 27, 30 },
       { 28 },
       { 23 },
       { 27 },
       { 29 },
       { 28 },
       { 27, 29, 30 },
       { 28 },
       {  },
       {  },
       {  } ];
